wr=736;
nProviders=40;

cost_worker=[ 850 980 638 662 617 941 850 613 862 659 717 876 889 748 907 614 793 999 711 781 794 743 868 862 970 791 678 657 937 657 837 686 935 685 763 811 953 905 740 892 ];
available_workers=[ 35 22 38 18 20 28 32 28 25 28 18 37 23 31 29 15 33 32 24 23 38 28 39 20 21 33 32 34 17 40 30 31 18 29 20 33 16 34 31 38 ];
cost_contract=[ 2382 1179 1789 2963 953 2435 2223 2292 1582 2330 2458 2940 2881 2756 2627 1954 2388 2446 2564 1050 2478 2769 2953 1617 2429 2309 2130 860 2016 2193 2801 889 1353 1699 1179 2878 1820 2643 1843 1976 ];
country=[ 9 11 8 15 5 7 6 13 10 8 10 10 15 11 7 15 8 8 9 5 7 13 12 13 6 7 13 12 14 13 13 13 12 11 14 15 7 6 11 9 ];
cost_1=5;
cost_2=7;
cost_3=300;
